language Essence 1.3
$ generated by bacp-gen.pl with seed 1058338582
$ edge probability 0.0684
$ course loads in range 2..8
letting n_courses be 150
letting n_periods be 27
letting load_per_period_lb be 5
letting load_per_period_ub be 33
letting courses_per_period_lb be 4
letting courses_per_period_ub be 7
letting course_load be function(
1 --> 6,
2 --> 5,
3 --> 4,
4 --> 2,
5 --> 3,
6 --> 7,
7 --> 2,
8 --> 6,
9 --> 2,
10 --> 4,
11 --> 3,
12 --> 3,
13 --> 7,
14 --> 3,
15 --> 2,
16 --> 5,
17 --> 8,
18 --> 5,
19 --> 7,
20 --> 3,
21 --> 3,
22 --> 4,
23 --> 3,
24 --> 7,
25 --> 6,
26 --> 3,
27 --> 7,
28 --> 5,
29 --> 2,
30 --> 8,
31 --> 5,
32 --> 5,
33 --> 2,
34 --> 5,
35 --> 7,
36 --> 3,
37 --> 4,
38 --> 3,
39 --> 5,
40 --> 8,
41 --> 7,
42 --> 7,
43 --> 3,
44 --> 2,
45 --> 6,
46 --> 4,
47 --> 3,
48 --> 5,
49 --> 2,
50 --> 3,
51 --> 3,
52 --> 8,
53 --> 7,
54 --> 4,
55 --> 3,
56 --> 4,
57 --> 4,
58 --> 5,
59 --> 2,
60 --> 6,
61 --> 7,
62 --> 4,
63 --> 3,
64 --> 6,
65 --> 6,
66 --> 2,
67 --> 6,
68 --> 5,
69 --> 8,
70 --> 6,
71 --> 5,
72 --> 3,
73 --> 5,
74 --> 2,
75 --> 7,
76 --> 8,
77 --> 7,
78 --> 3,
79 --> 8,
80 --> 4,
81 --> 8,
82 --> 7,
83 --> 8,
84 --> 2,
85 --> 6,
86 --> 5,
87 --> 6,
88 --> 5,
89 --> 7,
90 --> 5,
91 --> 4,
92 --> 8,
93 --> 3,
94 --> 5,
95 --> 3,
96 --> 3,
97 --> 5,
98 --> 7,
99 --> 3,
100 --> 3,
101 --> 4,
102 --> 4,
103 --> 5,
104 --> 5,
105 --> 2,
106 --> 5,
107 --> 7,
108 --> 3,
109 --> 3,
110 --> 3,
111 --> 2,
112 --> 6,
113 --> 8,
114 --> 5,
115 --> 5,
116 --> 6,
117 --> 7,
118 --> 3,
119 --> 2,
120 --> 2,
121 --> 3,
122 --> 4,
123 --> 8,
124 --> 2,
125 --> 7,
126 --> 7,
127 --> 5,
128 --> 3,
129 --> 2,
130 --> 6,
131 --> 8,
132 --> 2,
133 --> 3,
134 --> 2,
135 --> 4,
136 --> 3,
137 --> 3,
138 --> 6,
139 --> 2,
140 --> 5,
141 --> 4,
142 --> 3,
143 --> 5,
144 --> 3,
145 --> 4,
146 --> 4,
147 --> 5,
148 --> 7,
149 --> 6,
150 --> 6
)
letting prerequisite be relation (
(40,46),
(23,47),
(18,48),
(17,49),
(40,50),
(13,51),
(27,52),
(11,53),
(35,54),
(27,55),
(14,56),
(30,57),
(6,58),
(13,59),
(19,60),
(33,61),
(11,62),
(41,63),
(16,64),
(3,65),
(32,66),
(34,67),
(41,68),
(33,69),
(34,70),
(19,71),
(7,72),
(16,73),
(34,74),
(32,75),
(10,76),
(7,77),
(9,78),
(29,79),
(26,80),
(30,81),
(29,82),
(29,83),
(16,84),
(20,85),
(27,86),
(25,87),
(25,88),
(15,89),
(33,90),
(29,91),
(16,92),
(22,93),
(18,94),
(37,95),
(5,96),
(29,97),
(24,98),
(14,99),
(26,100),
(9,101),
(29,102),
(15,103),
(45,104),
(7,105),
(29,106),
(29,107),
(38,108),
(11,109),
(40,110),
(43,111),
(62,112),
(71,113),
(97,114),
(92,115),
(69,116),
(52,117),
(56,118),
(74,119),
(70,120),
(106,121),
(75,122),
(88,123),
(49,124),
(52,125),
(107,126),
(111,127),
(75,128),
(62,129),
(47,130),
(69,131),
(70,132),
(46,133),
(106,134),
(56,135),
(69,136),
(73,137),
(57,138),
(56,139),
(86,140),
(67,141),
(103,142),
(86,143),
(86,144),
(90,145),
(52,146),
(106,147),
(70,148),
(99,149),
(75,150),
(26,84),
(40,91),
(53,143),
(26,86),
(19,69),
(32,72),
(41,74),
(13,86),
(91,117),
(81,126),
(76,138),
(88,131),
(26,55),
(12,62),
(10,88),
(23,107),
(41,54),
(61,134),
(82,136),
(105,114),
(16,74),
(96,146),
(57,133),
(96,142),
(35,104),
(108,131),
(15,62),
(35,66),
(19,47),
(40,96),
(106,145),
(42,74),
(72,123),
(40,49),
(81,137),
(103,145),
(67,118),
(4,93),
(49,123),
(101,130),
(101,138),
(84,117),
(7,59),
(84,126),
(34,75),
(76,139),
(91,120),
(16,78),
(16,89),
(34,55),
(23,56),
(84,130),
(53,130),
(96,148),
(23,54),
(65,133),
(77,135),
(103,127),
(73,127),
(57,113),
(82,132),
(64,118),
(30,76),
(33,76),
(108,143),
(91,127),
(83,134),
(41,67),
(23,50),
(79,143),
(53,115),
(85,143),
(54,134),
(31,56),
(99,147),
(20,97),
(1,102),
(100,117),
(50,115),
(69,118),
(5,75),
(12,102),
(4,107),
(30,100),
(97,133),
(22,77),
(57,114),
(58,125),
(58,123),
(44,73),
(48,135),
(34,92),
(53,145),
(26,48),
(65,137),
(102,120),
(40,111),
(18,103),
(106,129),
(5,98),
(100,121),
(48,122),
(105,140),
(110,138),
(110,117),
(82,125),
(84,148),
(32,67),
(98,137),
(77,143),
(25,61),
(3,57),
(19,106),
(67,114),
(26,88),
(30,99),
(90,115),
(99,119),
(60,127),
(62,136),
(37,49),
(8,63),
(96,117),
(89,134),
(39,78),
(20,107),
(50,142),
(49,121),
(28,102),
(12,95),
(28,86),
(49,145),
(89,115),
(89,146),
(45,68),
(51,126),
(66,116),
(76,127),
(69,146),
(2,97),
(61,119),
(82,126),
(34,49),
(12,57),
(20,80),
(102,133),
(18,106),
(33,94),
(111,119),
(9,67),
(15,110),
(87,147),
(42,51),
(45,99),
(27,107),
(46,122),
(22,111),
(51,147),
(91,144),
(55,146),
(51,112),
(59,119),
(59,140),
(97,115),
(87,136),
(19,48),
(8,48),
(63,131),
(94,112),
(26,56),
(58,131),
(41,79),
(85,135),
(78,149),
(38,64),
(97,138),
(54,127),
(72,116),
(32,91),
(57,128),
(35,93),
(82,144),
(78,131),
(18,104),
(74,147),
(65,123),
(48,115),
(63,136),
(71,129),
(79,133),
(36,63),
(17,79),
(76,120),
(55,116),
(102,123),
(65,128),
(71,145),
(37,47),
(15,96),
(22,46),
(72,119),
(10,58),
(9,86),
(102,142),
(35,85),
(25,48),
(16,48),
(43,83),
(60,117),
(49,116),
(57,112),
(88,113),
(17,96),
(88,120),
(18,81),
(53,124),
(93,118),
(79,120),
(99,129),
(28,110),
(43,60),
(21,100),
(45,100),
(106,127),
(12,59),
(11,55),
(41,65),
(65,135),
(72,122),
(6,97),
(37,93),
(82,124),
(65,117),
(9,97),
(73,117),
(40,65),
(67,138),
(33,70),
(45,49),
(40,58),
(45,88),
(43,69),
(27,68),
(9,77),
(39,95),
(108,129),
(2,82),
(17,52),
(29,52),
(60,133),
(64,146),
(88,126),
(20,101),
(77,116),
(7,76),
(49,128),
(2,58),
(28,66),
(12,52),
(53,114),
(6,86),
(106,119),
(64,139),
(49,139),
(42,54),
(55,150),
(108,119),
(96,119),
(59,135),
(40,79),
(97,146),
(57,127),
(54,129),
(22,63)
)

